Minimize
r
Subject to
demandConstraints:
xS1T1D1+xS1T2D1+xS1T3D1+xS1T4D1=2
xS1T1D2+xS1T2D2+xS1T3D2+xS1T4D2=3
xS1T1D3+xS1T2D3+xS1T3D3+xS1T4D3=4
xS2T1D1+xS2T2D1+xS2T3D1+xS2T4D1=3
xS2T1D2+xS2T2D2+xS2T3D2+xS2T4D2=4
xS2T1D3+xS2T2D3+xS2T3D3+xS2T4D3=5
xS3T1D1+xS3T2D1+xS3T3D1+xS3T4D1=4
xS3T1D2+xS3T2D2+xS3T3D2+xS3T4D2=5
xS3T1D3+xS3T2D3+xS3T3D3+xS3T4D3=6
threeFlowConstraints:
uS1T1D1+uS1T2D1+uS1T3D1+uS1T4D1=3.0
uS1T1D2+uS1T2D2+uS1T3D2+uS1T4D2=3.0
uS1T1D3+uS1T2D3+uS1T3D3+uS1T4D3=3.0
uS2T1D1+uS2T2D1+uS2T3D1+uS2T4D1=3.0
uS2T1D2+uS2T2D2+uS2T3D2+uS2T4D2=3.0
uS2T1D3+uS2T2D3+uS2T3D3+uS2T4D3=3.0
uS3T1D1+uS3T2D1+uS3T3D1+uS3T4D1=3.0
uS3T1D2+uS3T2D2+uS3T3D2+uS3T4D2=3.0
uS3T1D3+uS3T2D3+uS3T3D3+uS3T4D3=3.0
equalFlowConstraints:
3xS1T4D1-2uS1T4D1=0
3xS1T4D2-3uS1T4D2=0
3xS1T4D3-4uS1T4D3=0
3xS2T4D1-3uS2T4D1=0
3xS2T4D2-4uS2T4D2=0
3xS2T4D3-5uS2T4D3=0
3xS3T4D1-4uS3T4D1=0
3xS3T4D2-5uS3T4D2=0
3xS3T4D3-6uS3T4D3=0
linkConstraints:
xS1T1D1+xS1T1D2+xS1T1D3-c11 <=0
xS1T2D1+xS1T2D2+xS1T2D3-c12 <=0
xS1T3D1+xS1T3D2+xS1T3D3-c13 <=0
xS1T4D1+xS1T4D2+xS1T4D3-c14 <=0
xS2T1D1+xS2T1D2+xS2T1D3-c21 <=0
xS2T2D1+xS2T2D2+xS2T2D3-c22 <=0
xS2T3D1+xS2T3D2+xS2T3D3-c23 <=0
xS2T4D1+xS2T4D2+xS2T4D3-c24 <=0
xS3T1D1+xS3T1D2+xS3T1D3-c31 <=0
xS3T2D1+xS3T2D2+xS3T2D3-c32 <=0
xS3T3D1+xS3T3D2+xS3T3D3-c33 <=0
xS3T4D1+xS3T4D2+xS3T4D3-c34 <=0

xS1T1D1+xS2T1D1+xS3T1D1-D11 <= 0
xS1T1D2+xS2T1D2+xS3T1D2-D12 <= 0
xS1T1D3+xS2T1D3+xS3T1D3-D13 <= 0
xS1T2D1+xS2T2D1+xS3T2D1-D21 <= 0
xS1T2D2+xS2T2D2+xS3T2D2-D22 <= 0
xS1T2D3+xS2T2D3+xS3T2D3-D23 <= 0
xS1T3D1+xS2T3D1+xS3T3D1-D31 <= 0
xS1T3D2+xS2T3D2+xS3T3D2-D32 <= 0
xS1T3D3+xS2T3D3+xS3T3D3-D33 <= 0
xS1T4D1+xS2T4D1+xS3T4D1-D41 <= 0
xS1T4D2+xS2T4D2+xS3T4D2-D42 <= 0
xS1T4D3+xS2T4D3+xS3T4D3-D43 <= 0
transiteNodesConstraint:
xS1T1D1+xS1T1D2+xS1T1D3+xS2T1D1+xS2T1D2+xS2T1D3+xS3T1D1+xS3T1D2+xS3T1D3-r <= 0
xS1T2D1+xS1T2D2+xS1T2D3+xS2T2D1+xS2T2D2+xS2T2D3+xS3T2D1+xS3T2D2+xS3T2D3-r <= 0
xS1T3D1+xS1T3D2+xS1T3D3+xS2T3D1+xS2T3D2+xS2T3D3+xS3T3D1+xS3T3D2+xS3T3D3-r <= 0
xS1T4D1+xS1T4D2+xS1T4D3+xS2T4D1+xS2T4D2+xS2T4D3+xS3T4D1+xS3T4D2+xS3T4D3-r <= 0
negativityConstraints:
xS2T1D1 >= 0
xS1T2D2 >= 0
xS2T1D2 >= 0
xS2T3D1 >= 0
xS2T2D1 >= 0
xS2T3D3 >= 0
xS3T3D3 >= 0
xS3T1D1 >= 0
xS1T2D3 >= 0
xS3T4D1 >= 0
xS2T1D3 >= 0
xS3T4D3 >= 0
xS1T1D3 >= 0
xS3T2D1 >= 0
xS2T4D1 >= 0
xS1T3D2 >= 0
xS1T3D3 >= 0
xS1T4D1 >= 0
xS2T4D2 >= 0
xS1T4D2 >= 0
xS1T2D1 >= 0
xS3T1D2 >= 0
xS1T1D1 >= 0
xS3T4D2 >= 0
xS1T3D1 >= 0
xS2T4D3 >= 0
xS3T1D3 >= 0
xS1T1D2 >= 0
xS3T3D2 >= 0
xS3T3D1 >= 0
xS2T2D2 >= 0
xS2T3D2 >= 0
xS3T2D2 >= 0
xS2T2D3 >= 0
xS1T4D3 >= 0
xS3T2D3 >= 0
r >= 0
Binary
uS2T1D1
uS3T4D2
uS1T4D1
uS2T3D2
uS1T3D3
uS1T4D2
uS2T3D1
uS1T1D3
uS1T2D3
uS3T2D1
uS3T2D2
uS2T4D1
uS1T3D1
uS3T1D1
uS3T3D2
uS3T3D1
uS2T3D3
uS3T1D2
uS3T3D3
uS3T1D3
uS3T4D3
uS1T2D1
uS1T4D3
uS2T2D1
uS2T1D3
uS3T2D3
uS2T2D3
uS1T2D2
uS1T3D2
uS2T4D3
uS2T4D2
uS2T1D2
uS2T2D2
uS3T4D1
uS1T1D2
uS1T1D1
END
